184 5
10 10 10 10 10 

0 0 0 0 0 0 1 2 
0 0 0 0 0 0 1 3 
5 1 0 0 0 0 2 8 4 
7 3 0 0 0 0 2 12 5 
1 3 0 0 0 0 2 11 6 
9 3 0 0 0 0 1 7 
3 3 0 0 0 0 1 9 
6 3 0 0 0 0 1 9 
10 2 0 0 0 0 1 10 
7 3 0 0 0 0 1 13 
4 2 0 0 0 0 1 13 
6 2 0 0 0 0 1 13 
0 0 0 0 0 0 1 14 
0 0 0 0 0 0 1 15 
2 0 0 0 1 0 2 17 16 
6 0 0 0 1 0 1 18 
5 0 0 0 4 0 1 18 
3 0 0 0 2 0 3 23 20 19 
9 0 0 0 4 0 1 21 
3 0 0 0 2 0 1 21 
8 0 0 0 2 0 1 22 
7 0 0 0 3 0 1 24 
7 0 0 0 3 0 1 24 
6 0 0 0 3 0 1 25 
0 0 0 0 0 0 3 26 38 50 
0 0 0 0 0 0 2 27 31 
1 0 0 0 0 1 2 30 28 
5 0 0 0 0 2 1 29 
10 0 0 0 0 4 1 32 
1 0 0 0 0 1 1 32 
1 0 0 0 0 3 1 32 
2 0 0 0 0 3 2 36 33 
10 0 0 0 0 1 1 34 
9 0 0 0 0 3 1 35 
5 0 0 0 0 3 1 37 
5 0 0 0 0 4 1 37 
0 0 0 0 0 0 1 62 
0 0 0 0 0 0 2 39 44 
6 0 1 0 0 0 1 40 
4 0 3 0 0 0 3 48 47 41 
10 0 2 0 0 0 1 42 
8 0 1 0 0 0 1 43 
5 0 2 0 0 0 1 45 
2 0 3 0 0 0 1 45 
4 0 6 0 0 0 1 46 
1 0 2 0 0 0 1 49 
10 0 3 0 0 0 1 49 
9 0 2 0 0 0 1 49 
0 0 0 0 0 0 1 62 
0 0 0 0 0 0 2 51 52 
10 0 1 0 0 0 2 60 53 
7 0 3 0 0 0 3 60 56 55 
5 0 2 0 0 0 1 54 
8 0 1 0 0 0 1 55 
8 0 1 0 0 0 1 57 
5 0 3 0 0 0 1 57 
8 0 2 0 0 0 1 58 
6 0 4 0 0 0 1 59 
6 0 5 0 0 0 1 61 
1 0 3 0 0 0 1 61 
0 0 0 0 0 0 1 62 
0 0 0 0 0 0 5 63 75 87 99 111 
0 0 0 0 0 0 1 64 
3 0 0 1 0 0 2 66 65 
6 0 0 2 0 0 1 67 
2 0 0 5 0 0 1 67 
3 0 0 3 0 0 2 69 68 
4 0 0 3 0 0 1 70 
4 0 0 1 0 0 1 70 
5 0 0 2 0 0 2 72 71 
8 0 0 3 0 0 1 73 
5 0 0 1 0 0 1 73 
1 0 0 4 0 0 1 74 
0 0 0 0 0 0 1 123 
0 0 0 0 0 0 2 76 80 
6 1 0 0 0 0 3 84 82 77 
8 2 0 0 0 0 1 78 
7 3 0 0 0 0 1 79 
10 2 0 0 0 0 1 81 
8 5 0 0 0 0 1 81 
7 1 0 0 0 0 1 83 
10 4 0 0 0 0 1 83 
6 4 0 0 0 0 1 85 
9 1 0 0 0 0 1 85 
3 2 0 0 0 0 1 86 
0 0 0 0 0 0 1 123 
0 0 0 0 0 0 3 88 91 97 
2 0 0 0 1 0 1 89 
10 0 0 0 2 0 1 90 
3 0 0 0 2 0 2 96 92 
6 0 0 0 4 0 2 96 92 
8 0 0 0 4 0 1 93 
2 0 0 0 2 0 1 94 
5 0 0 0 1 0 1 95 
6 0 0 0 2 0 1 98 
1 0 0 0 2 0 1 98 
5 0 0 0 5 0 1 98 
0 0 0 0 0 0 1 123 
0 0 0 0 0 0 2 100 101 
8 1 0 0 0 0 1 102 
9 2 0 0 0 0 2 105 104 
4 4 0 0 0 0 1 103 
1 2 0 0 0 0 1 104 
7 5 0 0 0 0 2 109 106 
4 1 0 0 0 0 1 106 
5 2 0 0 0 0 1 107 
4 2 0 0 0 0 1 108 
10 4 0 0 0 0 1 110 
4 2 0 0 0 0 1 110 
0 0 0 0 0 0 1 123 
0 0 0 0 0 0 1 112 
6 0 0 0 0 1 1 113 
7 0 0 0 0 4 1 114 
1 0 0 0 0 2 2 116 115 
8 0 0 0 0 1 2 118 117 
4 0 0 0 0 4 2 118 117 
7 0 0 0 0 1 1 120 
4 0 0 0 0 2 1 119 
7 0 0 0 0 4 1 121 
1 0 0 0 0 1 1 121 
1 0 0 0 0 5 1 122 
0 0 0 0 0 0 1 123 
0 0 0 0 0 0 5 124 136 148 160 172 
0 0 0 0 0 0 2 125 127 
10 0 0 1 0 0 1 126 
1 0 0 4 0 0 1 128 
7 0 0 2 0 0 1 128 
5 0 0 1 0 0 2 130 129 
7 0 0 1 0 0 1 131 
5 0 0 6 0 0 1 131 
7 0 0 4 0 0 1 132 
4 0 0 1 0 0 2 134 133 
5 0 0 3 0 0 1 135 
7 0 0 2 0 0 1 135 
0 0 0 0 0 0 1 184 
0 0 0 0 0 0 2 137 140 
10 1 0 0 0 0 1 138 
10 3 0 0 0 0 1 139 
10 1 0 0 0 0 3 146 144 141 
1 3 0 0 0 0 2 144 142 
6 3 0 0 0 0 1 142 
4 3 0 0 0 0 1 143 
8 2 0 0 0 0 1 145 
2 4 0 0 0 0 1 145 
6 2 0 0 0 0 1 147 
2 3 0 0 0 0 1 147 
0 0 0 0 0 0 1 184 
0 0 0 0 0 0 3 149 152 154 
4 1 0 0 0 0 2 158 150 
3 1 0 0 0 0 1 151 
2 1 0 0 0 0 1 153 
4 1 0 0 0 0 1 153 
2 1 0 0 0 0 1 155 
10 6 0 0 0 0 1 155 
2 2 0 0 0 0 1 156 
4 2 0 0 0 0 1 157 
4 5 0 0 0 0 1 159 
4 5 0 0 0 0 1 159 
0 0 0 0 0 0 1 184 
0 0 0 0 0 0 1 161 
10 0 0 0 0 1 2 163 162 
3 0 0 0 0 3 2 169 164 
7 0 0 0 0 3 2 169 164 
5 0 0 0 0 4 2 166 165 
3 0 0 0 0 2 1 167 
10 0 0 0 0 2 1 167 
4 0 0 0 0 1 1 168 
4 0 0 0 0 3 1 170 
1 0 0 0 0 3 1 170 
10 0 0 0 0 3 1 171 
0 0 0 0 0 0 1 184 
0 0 0 0 0 0 2 173 176 
9 0 1 0 0 0 2 177 174 
6 0 3 0 0 0 1 175 
5 0 3 0 0 0 2 180 178 
4 0 1 0 0 0 1 177 
6 0 2 0 0 0 2 180 179 
6 0 2 0 0 0 1 179 
9 0 3 0 0 0 1 181 
7 0 2 0 0 0 1 181 
8 0 4 0 0 0 1 182 
10 0 4 0 0 0 1 183 
0 0 0 0 0 0 1 184 
0 0 0 0 0 0 0 
